NAME : XML100_3152_10
DIMENSION : 101
NB_CLUSTERS : 28
CLUSTERING_ALG : DBSCAN
CLUSTERING_PARAMS : eps(54), minSamples(3)
CLUSTERS
1 0
2 2 9 26
3 3 25 42 49 57 98
4 5 7 8 13 37 61 76 78 89 97
5 12 70 79 90
6 10 16 69 71 94
7 18 20 46 52 86
8 22 31 62
9 23 28 58 66 80 83 95
10 45 68 81
11 11 41 44 72 73 88
12 24 74 77
13 14 27 29 35
14 4 36 84
15 15 19 59 93
16 55 96
17 17 21 39 43 48
18 33 40 67
19 65 75 85
20 53 56
21 34 91 100
22 50 63 87
23 54 82
24 1 30
25 6 92
26 38 60
27 32 51 64
28 47 99
EOF